RAW/CMTT/fspd-long/CMT11T.vrp_seed-4.out
998.8014964	185.68	210.523
