RAW/CMTT/fspd-long/CMT11T.vrp_seed-4.sol
Route #1: 119 82 111 86 88
Route #2: 105 106 104 103 73 76 68 77 79 80 78 72 75 74 71 70 69 67 107 120
Route #3: 108 8 12 13 14 15 11 10 9 7 6 5 4 3 1 2 81
Route #4: 102 99 96 93 94 97 114 18 83 113 117 84 112 85 89 92 87
Route #5: 95 109 21 20 23 26 28 32 35 29 36 34 31 30 33 27 24 22 25 19 16 17 118 90 91
Route #6: 115 37 38 39 42 41 44 47 46 49 50 51 48 45 43 40 110 116 101
Route #7: 52 54 57 59 65 61 62 64 66 63 60 56 58 55 53 98 100
Cost 998.801496